* SDPA sparse format data
* File name = Bst_bpv1.dat-s
* mDim =  29, nBlock = 15
* size of bVect = 1 *  29
* size of sparseMatrix =  285 * 5
 29
 15
-17  4  4  4  4  4  4  4  4  4  4  4  4  4  4 
   0.0000000000    0.0000000000    0.0000000000    0.0000000000    0.0000000000    0.0000000000    1.0000000000    0.0000000000    0.0000000000    0.5925925926    0.0000000000    0.0000000000    0.0000000000    0.0000000000    0.0000000000    0.0000000000    0.0000000000    0.0000000000    0.0000000000    0.0000000000    0.0000000000    0.0000000000    0.0000000000    0.0000000000    0.0000000000    0.0000000000    0.0000000000    0.0000000000    0.0000000000 
  6   1   1   1    1.0000000000
  7   1   2   2    1.0000000000
  9   1   3   3    1.0000000000
 10   1   4   4    1.0000000000
 12   1   5   5    1.0000000000
 18   1   6   6    1.0000000000
 24   1   7   7    1.0000000000
 25   1   8   8    1.0000000000
 28   1   9   9    1.0000000000
  5   1  10  10   -1.0000000000
  0   1  10  10   -1.0000000000
  8   1  11  11   -1.0000000000
  0   1  11  11   -1.0000000000
 11   1  12  12   -1.0000000000
  0   1  12  12   -1.0000000000
 13   1  13  13   -1.0000000000
  0   1  13  13   -1.0000000000
 18   1  14  14   -1.0000000000
  0   1  14  14   -1.0000000000
 24   1  15  15   -1.0000000000
  0   1  15  15   -1.0000000000
 25   1  16  16   -1.0000000000
  0   1  16  16   -1.0000000000
 28   1  17  17   -1.0000000000
  0   1  17  17   -1.0000000000
  0   2   1   1   -1.0000000000
  1   2   1   2    1.0000000000
  2   2   1   3    1.0000000000
  3   2   1   4    1.0000000000
  5   2   2   2    1.0000000000
  6   2   2   3    1.0000000000
  7   2   2   4    1.0000000000
  8   2   3   3    1.0000000000
  9   2   3   4    1.0000000000
 11   2   4   4    1.0000000000
  0   3   1   1   -1.0000000000
  2   3   1   2    1.0000000000
  3   3   1   3    1.0000000000
  4   3   1   4    1.0000000000
  8   3   2   2    1.0000000000
  9   3   2   3    1.0000000000
 10   3   2   4    1.0000000000
 11   3   3   3    1.0000000000
 12   3   3   4    1.0000000000
 13   3   4   4    1.0000000000
  0   4   1   1    0.6250000000
  1   4   1   1    0.5625000000
  2   4   1   1    1.0000000000
  1   4   1   2   -0.6250000000
  5   4   1   2    0.5625000000
  6   4   1   2    1.0000000000
  2   4   1   3   -0.6250000000
  6   4   1   3    0.5625000000
  8   4   1   3    1.0000000000
  3   4   1   4   -0.6250000000
  7   4   1   4    0.5625000000
  9   4   1   4    1.0000000000
  5   4   2   2   -0.6250000000
 14   4   2   2    0.5625000000
 15   4   2   2    1.0000000000
  6   4   2   3   -0.6250000000
 15   4   2   3    0.5625000000
 17   4   2   3    1.0000000000
  7   4   2   4   -0.6250000000
 16   4   2   4    0.5625000000
 18   4   2   4    1.0000000000
  8   4   3   3   -0.6250000000
 17   4   3   3    0.5625000000
 20   4   3   3    1.0000000000
  9   4   3   4   -0.6250000000
 18   4   3   4    0.5625000000
 21   4   3   4    1.0000000000
 11   4   4   4   -0.6250000000
 19   4   4   4    0.5625000000
 23   4   4   4    1.0000000000
  0   5   1   1    0.3703703704
  1   5   1   1    1.0000000000
  2   5   1   1    0.2962962963
  1   5   1   2   -0.3703703704
  5   5   1   2    1.0000000000
  6   5   1   2    0.2962962963
  2   5   1   3   -0.3703703704
  6   5   1   3    1.0000000000
  8   5   1   3    0.2962962963
  3   5   1   4   -0.3703703704
  7   5   1   4    1.0000000000
  9   5   1   4    0.2962962963
  5   5   2   2   -0.3703703704
 14   5   2   2    1.0000000000
 15   5   2   2    0.2962962963
  6   5   2   3   -0.3703703704
 15   5   2   3    1.0000000000
 17   5   2   3    0.2962962963
  7   5   2   4   -0.3703703704
 16   5   2   4    1.0000000000
 18   5   2   4    0.2962962963
  8   5   3   3   -0.3703703704
 17   5   3   3    1.0000000000
 20   5   3   3    0.2962962963
  9   5   3   4   -0.3703703704
 18   5   3   4    1.0000000000
 21   5   3   4    0.2962962963
 11   5   4   4   -0.3703703704
 19   5   4   4    1.0000000000
 23   5   4   4    0.2962962963
  0   6   1   1    0.5999880002
  3   6   1   1   -1.0000000000
  4   6   1   1    0.5999880002
  2   6   1   2   -0.5999880002
  9   6   1   2   -1.0000000000
 10   6   1   2    0.5999880002
  3   6   1   3   -0.5999880002
 11   6   1   3   -1.0000000000
 12   6   1   3    0.5999880002
  4   6   1   4   -0.5999880002
 12   6   1   4   -1.0000000000
 13   6   1   4    0.5999880002
  8   6   2   2   -0.5999880002
 21   6   2   2   -1.0000000000
 22   6   2   2    0.5999880002
  9   6   2   3   -0.5999880002
 23   6   2   3   -1.0000000000
 24   6   2   3    0.5999880002
 10   6   2   4   -0.5999880002
 24   6   2   4   -1.0000000000
 25   6   2   4    0.5999880002
 11   6   3   3   -0.5999880002
 26   6   3   3   -1.0000000000
 27   6   3   3    0.5999880002
 12   6   3   4   -0.5999880002
 27   6   3   4   -1.0000000000
 28   6   3   4    0.5999880002
 13   6   4   4   -0.5999880002
 28   6   4   4   -1.0000000000
 29   6   4   4    0.5999880002
  0   7   1   1   -1.0000000000
  3   7   1   1   -0.6666666667
  4   7   1   1   -0.6666666667
  2   7   1   2    1.0000000000
  9   7   1   2   -0.6666666667
 10   7   1   2   -0.6666666667
  3   7   1   3    1.0000000000
 11   7   1   3   -0.6666666667
 12   7   1   3   -0.6666666667
  4   7   1   4    1.0000000000
 12   7   1   4   -0.6666666667
 13   7   1   4   -0.6666666667
  8   7   2   2    1.0000000000
 21   7   2   2   -0.6666666667
 22   7   2   2   -0.6666666667
  9   7   2   3    1.0000000000
 23   7   2   3   -0.6666666667
 24   7   2   3   -0.6666666667
 10   7   2   4    1.0000000000
 24   7   2   4   -0.6666666667
 25   7   2   4   -0.6666666667
 11   7   3   3    1.0000000000
 26   7   3   3   -0.6666666667
 27   7   3   3   -0.6666666667
 12   7   3   4    1.0000000000
 27   7   3   4   -0.6666666667
 28   7   3   4   -0.6666666667
 13   7   4   4    1.0000000000
 28   7   4   4   -0.6666666667
 29   7   4   4   -0.6666666667
  1   8   1   1    1.0000000000
  5   8   1   2    1.0000000000
  6   8   1   3    1.0000000000
  7   8   1   4    1.0000000000
 14   8   2   2    1.0000000000
 15   8   2   3    1.0000000000
 16   8   2   4    1.0000000000
 17   8   3   3    1.0000000000
 18   8   3   4    1.0000000000
 19   8   4   4    1.0000000000
  2   9   1   1    1.0000000000
  6   9   1   2    1.0000000000
  8   9   1   3    1.0000000000
  9   9   1   4    1.0000000000
 15   9   2   2    1.0000000000
 17   9   2   3    1.0000000000
 18   9   2   4    1.0000000000
 20   9   3   3    1.0000000000
 21   9   3   4    1.0000000000
 23   9   4   4    1.0000000000
  3  10   1   1    1.0000000000
  7  10   1   2    1.0000000000
  9  10   1   3    1.0000000000
 11  10   1   4    1.0000000000
 16  10   2   2    1.0000000000
 18  10   2   3    1.0000000000
 19  10   2   4    1.0000000000
 21  10   3   3    1.0000000000
 23  10   3   4    1.0000000000
 26  10   4   4    1.0000000000
  4  11   1   1    1.0000000000
 10  11   1   2    1.0000000000
 12  11   1   3    1.0000000000
 13  11   1   4    1.0000000000
 22  11   2   2    1.0000000000
 24  11   2   3    1.0000000000
 25  11   2   4    1.0000000000
 27  11   3   3    1.0000000000
 28  11   3   4    1.0000000000
 29  11   4   4    1.0000000000
  0  12   1   1   -1.0000000000
  1  12   1   1   -1.0000000000
  1  12   1   2    1.0000000000
  5  12   1   2   -1.0000000000
  2  12   1   3    1.0000000000
  6  12   1   3   -1.0000000000
  3  12   1   4    1.0000000000
  7  12   1   4   -1.0000000000
  5  12   2   2    1.0000000000
 14  12   2   2   -1.0000000000
  6  12   2   3    1.0000000000
 15  12   2   3   -1.0000000000
  7  12   2   4    1.0000000000
 16  12   2   4   -1.0000000000
  8  12   3   3    1.0000000000
 17  12   3   3   -1.0000000000
  9  12   3   4    1.0000000000
 18  12   3   4   -1.0000000000
 11  12   4   4    1.0000000000
 19  12   4   4   -1.0000000000
  0  13   1   1   -1.0000000000
  2  13   1   1   -1.0000000000
  1  13   1   2    1.0000000000
  6  13   1   2   -1.0000000000
  2  13   1   3    1.0000000000
  8  13   1   3   -1.0000000000
  3  13   1   4    1.0000000000
  9  13   1   4   -1.0000000000
  5  13   2   2    1.0000000000
 15  13   2   2   -1.0000000000
  6  13   2   3    1.0000000000
 17  13   2   3   -1.0000000000
  7  13   2   4    1.0000000000
 18  13   2   4   -1.0000000000
  8  13   3   3    1.0000000000
 20  13   3   3   -1.0000000000
  9  13   3   4    1.0000000000
 21  13   3   4   -1.0000000000
 11  13   4   4    1.0000000000
 23  13   4   4   -1.0000000000
  0  14   1   1   -1.0000000000
  3  14   1   1   -1.0000000000
  1  14   1   2    1.0000000000
  7  14   1   2   -1.0000000000
  2  14   1   3    1.0000000000
  9  14   1   3   -1.0000000000
  3  14   1   4    1.0000000000
 11  14   1   4   -1.0000000000
  5  14   2   2    1.0000000000
 16  14   2   2   -1.0000000000
  6  14   2   3    1.0000000000
 18  14   2   3   -1.0000000000
  7  14   2   4    1.0000000000
 19  14   2   4   -1.0000000000
  8  14   3   3    1.0000000000
 21  14   3   3   -1.0000000000
  9  14   3   4    1.0000000000
 23  14   3   4   -1.0000000000
 11  14   4   4    1.0000000000
 26  14   4   4   -1.0000000000
  0  15   1   1   -1.0000000000
  4  15   1   1   -1.0000000000
  2  15   1   2    1.0000000000
 10  15   1   2   -1.0000000000
  3  15   1   3    1.0000000000
 12  15   1   3   -1.0000000000
  4  15   1   4    1.0000000000
 13  15   1   4   -1.0000000000
  8  15   2   2    1.0000000000
 22  15   2   2   -1.0000000000
  9  15   2   3    1.0000000000
 24  15   2   3   -1.0000000000
 10  15   2   4    1.0000000000
 25  15   2   4   -1.0000000000
 11  15   3   3    1.0000000000
 27  15   3   3   -1.0000000000
 12  15   3   4    1.0000000000
 28  15   3   4   -1.0000000000
 13  15   4   4    1.0000000000
 29  15   4   4   -1.0000000000
